#Define system
units			    metal
dimension		    3
atom_style      	atomic
boundary        	p p p
neigh_modify		delay 0 every 1

#Define geometry 
lattice 		    fcc 3.573

region 		        box block 0 8 0 8 0 8 units lattice
create_box		    4 box

create_atoms		1 box & 
basis 2 2 &
basis 3 3 &
basis 4 4 &

#Potential
pair_style		    eam/alloy
pair_coeff 		    * * ../_Potentials/FeNiCrCoCu-heamix.eam.alloy Fe Ni Cr Co

mass 1 55.845 # Fe
mass 2 58.6934 # Ni
mass 3 51.9961 # Cr
mass 4 58.933194 # Co

# Termodinamica

velocity        	all create 100.0 97287
#fix                 1 all nve
fix			        5 all npt temp 300.0 300.0 1.0 iso 1.0 1.0 1000000000.0 
fix 			    4 all press/berendsen iso 1.0 1.0 1000.0

reset_timestep  	0

# Run

thermo_style		custom step temp press
thermo          	100
thermo_modify 		lost ignore flush yes

# shell if ![ -d 'dump' ] ; then mkdir dump ; fi
shell mkdir dump
dump			1 all atom 10 dump/*.dump
dump_modify     1 pad 5

timestep		0.01
#minimize 1.0e-8 1.0e-8 10000 10000
run             10000

