boundary        p p p

units		metal
timestep	0.001

lattice         bcc 2.87
region          box block 0 20 0 20 0 20
create_box      1 box
create_atoms    1 box

pair_style      none
mass            * 58.71
atom_modify     sort 0 0

compute         XRD all xrd 1.5406 Fe 2Theta 10 110 c 2 2 2 LP 0 echo

fix             1 all ave/histo/weight 1 1 1 10 110 200 c_XRD[1] c_XRD[2] &
                mode vector file xrd.hist.xrd

run             0

unfix           1
uncompute       XRD
